\Problem name: Blood_supply_chain

Minimize
OBJROW: I(00) + I(01)
Subject To
contrainte_budget:  -3236.97467 Gamma(000) + 479.98212 Gamma(001) -3423.86452 Gamma(010) + 293.09227 Gamma(011) -3350.00393 Gamma(020) + 366.95287 Gamma(021) -3108.52842 Gamma(030) + 608.42838 Gamma(031) -3356.34480 Gamma(040) + 360.61200 Gamma(041)
 -3362.83913 Gamma(050) + 354.11767 Gamma(051) -3213.73107 Gamma(060) + 503.22573 Gamma(061) -3429.36364 Gamma(070) + 287.59316 Gamma(071) -3243.64187 Gamma(080) + 473.31492 Gamma(081) -3404.33911 Gamma(090) + 312.61768 Gamma(091)
 -3236.97467 Gamma(100) + 479.98212 Gamma(101) -3423.86452 Gamma(110) + 293.09227 Gamma(111) -3350.00393 Gamma(120) + 366.95287 Gamma(121) -3108.52842 Gamma(130) + 608.42838 Gamma(131) -3356.34480 Gamma(140) + 360.61200 Gamma(141)
 -3362.83913 Gamma(150) + 354.11767 Gamma(151) -3213.73107 Gamma(160) + 503.22573 Gamma(161) -3429.36364 Gamma(170) + 287.59316 Gamma(171) -3243.64187 Gamma(180) + 473.31492 Gamma(181) -3404.33911 Gamma(190) + 312.61768 Gamma(191)
 -3236.97467 Gamma(200) + 479.98212 Gamma(201) -3423.86452 Gamma(210) + 293.09227 Gamma(211) -3350.00393 Gamma(220) + 366.95287 Gamma(221) -3108.52842 Gamma(230) + 608.42838 Gamma(231) -3356.34480 Gamma(240) + 360.61200 Gamma(241)
 -3362.83913 Gamma(250) + 354.11767 Gamma(251) -3213.73107 Gamma(260) + 503.22573 Gamma(261) -3429.36364 Gamma(270) + 287.59316 Gamma(271) -3243.64187 Gamma(280) + 473.31492 Gamma(281) -3404.33911 Gamma(290) + 312.61768 Gamma(291)
 -3236.97467 Gamma(300) + 479.98212 Gamma(301) -3423.86452 Gamma(310) + 293.09227 Gamma(311) -3350.00393 Gamma(320) + 366.95287 Gamma(321) -3108.52842 Gamma(330) + 608.42838 Gamma(331) -3356.34480 Gamma(340) + 360.61200 Gamma(341)
 -3362.83913 Gamma(350) + 354.11767 Gamma(351) -3213.73107 Gamma(360) + 503.22573 Gamma(361) -3429.36364 Gamma(370) + 287.59316 Gamma(371) -3243.64187 Gamma(380) + 473.31492 Gamma(381) -3404.33911 Gamma(390) + 312.61768 Gamma(391)
 -3236.97467 Gamma(400) + 479.98212 Gamma(401) -3423.86452 Gamma(410) + 293.09227 Gamma(411) -3350.00393 Gamma(420) + 366.95287 Gamma(421) -3108.52842 Gamma(430) + 608.42838 Gamma(431) -3356.34480 Gamma(440) + 360.61200 Gamma(441)
 -3362.83913 Gamma(450) + 354.11767 Gamma(451) -3213.73107 Gamma(460) + 503.22573 Gamma(461) -3429.36364 Gamma(470) + 287.59316 Gamma(471) -3243.64187 Gamma(480) + 473.31492 Gamma(481) -3404.33911 Gamma(490) + 312.61768 Gamma(491)
 -3236.97467 Gamma(500) + 479.98212 Gamma(501) -3423.86452 Gamma(510) + 293.09227 Gamma(511) -3350.00393 Gamma(520) + 366.95287 Gamma(521) -3108.52842 Gamma(530) + 608.42838 Gamma(531) -3356.34480 Gamma(540) + 360.61200 Gamma(541)
 -3362.83913 Gamma(550) + 354.11767 Gamma(551) -3213.73107 Gamma(560) + 503.22573 Gamma(561) -3429.36364 Gamma(570) + 287.59316 Gamma(571) -3243.64187 Gamma(580) + 473.31492 Gamma(581) -3404.33911 Gamma(590) + 312.61768 Gamma(591)
 -3236.97467 Gamma(600) + 479.98212 Gamma(601) -3423.86452 Gamma(610) + 293.09227 Gamma(611) -3350.00393 Gamma(620) + 366.95287 Gamma(621) -3108.52842 Gamma(630) + 608.42838 Gamma(631) -3356.34480 Gamma(640) + 360.61200 Gamma(641)
 -3362.83913 Gamma(650) + 354.11767 Gamma(651) -3213.73107 Gamma(660) + 503.22573 Gamma(661) -3429.36364 Gamma(670) + 287.59316 Gamma(671) -3243.64187 Gamma(680) + 473.31492 Gamma(681) -3404.33911 Gamma(690) + 312.61768 Gamma(691)
 -3236.97467 Gamma(700) + 479.98212 Gamma(701) -3423.86452 Gamma(710) + 293.09227 Gamma(711) -3350.00393 Gamma(720) + 366.95287 Gamma(721) -3108.52842 Gamma(730) + 608.42838 Gamma(731) -3356.34480 Gamma(740) + 360.61200 Gamma(741)
 -3362.83913 Gamma(750) + 354.11767 Gamma(751) -3213.73107 Gamma(760) + 503.22573 Gamma(761) -3429.36364 Gamma(770) + 287.59316 Gamma(771) -3243.64187 Gamma(780) + 473.31492 Gamma(781) -3404.33911 Gamma(790) + 312.61768 Gamma(791)
 -3236.97467 Gamma(800) + 479.98212 Gamma(801) -3423.86452 Gamma(810) + 293.09227 Gamma(811) -3350.00393 Gamma(820) + 366.95287 Gamma(821) -3108.52842 Gamma(830) + 608.42838 Gamma(831) -3356.34480 Gamma(840) + 360.61200 Gamma(841)
 -3362.83913 Gamma(850) + 354.11767 Gamma(851) -3213.73107 Gamma(860) + 503.22573 Gamma(861) -3429.36364 Gamma(870) + 287.59316 Gamma(871) -3243.64187 Gamma(880) + 473.31492 Gamma(881) -3404.33911 Gamma(890) + 312.61768 Gamma(891)
 -3236.97467 Gamma(900) + 479.98212 Gamma(901) -3423.86452 Gamma(910) + 293.09227 Gamma(911) -3350.00393 Gamma(920) + 366.95287 Gamma(921) -3108.52842 Gamma(930) + 608.42838 Gamma(931) -3356.34480 Gamma(940) + 360.61200 Gamma(941)
 -3362.83913 Gamma(950) + 354.11767 Gamma(951) -3213.73107 Gamma(960) + 503.22573 Gamma(961) -3429.36364 Gamma(970) + 287.59316 Gamma(971) -3243.64187 Gamma(980) + 473.31492 Gamma(981) -3404.33911 Gamma(990) + 312.61768 Gamma(991)
 + 520.80080 Y(000) + 520.80080 Y(001) + 362.18697 Y(100) + 362.18697 Y(101) + 450.66873 Y(200) + 450.66873 Y(201) + 1049.14272 Y(300) + 1049.14272 Y(301) + 668.82931 Y(400) + 668.82931 Y(401)
 + 267.03731 Y(500) + 267.03731 Y(501) + 933.81994 Y(600) + 933.81994 Y(601) + 414.87803 Y(700) + 414.87803 Y(701) + 574.53835 Y(800) + 574.53835 Y(801) + 332.66781 Y(900) + 332.66781 Y(901)
 + 0.06906 X(000) + 0.06906 X(001) + 0.06906 X(002) + 0.06906 X(003) + 0.06906 X(004) + 0.06906 X(005) + 0.06906 X(006) + 0.06906 X(007) + 0.06906 X(008) + 0.06906 X(009)
 + 0.06906 X(010) + 0.06906 X(011) + 0.06906 X(012) + 0.06906 X(013) + 0.06906 X(014) + 0.06906 X(015) + 0.06906 X(016) + 0.06906 X(017) + 0.06906 X(018) + 0.06906 X(019)
 + 0.06906 X(100) + 0.06906 X(101) + 0.06906 X(102) + 0.06906 X(103) + 0.06906 X(104) + 0.06906 X(105) + 0.06906 X(106) + 0.06906 X(107) + 0.06906 X(108) + 0.06906 X(109)
 + 0.06906 X(110) + 0.06906 X(111) + 0.06906 X(112) + 0.06906 X(113) + 0.06906 X(114) + 0.06906 X(115) + 0.06906 X(116) + 0.06906 X(117) + 0.06906 X(118) + 0.06906 X(119)
 + 0.06906 X(200) + 0.06906 X(201) + 0.06906 X(202) + 0.06906 X(203) + 0.06906 X(204) + 0.06906 X(205) + 0.06906 X(206) + 0.06906 X(207) + 0.06906 X(208) + 0.06906 X(209)
 + 0.06906 X(210) + 0.06906 X(211) + 0.06906 X(212) + 0.06906 X(213) + 0.06906 X(214) + 0.06906 X(215) + 0.06906 X(216) + 0.06906 X(217) + 0.06906 X(218) + 0.06906 X(219)
 + 0.06906 X(300) + 0.06906 X(301) + 0.06906 X(302) + 0.06906 X(303) + 0.06906 X(304) + 0.06906 X(305) + 0.06906 X(306) + 0.06906 X(307) + 0.06906 X(308) + 0.06906 X(309)
 + 0.06906 X(310) + 0.06906 X(311) + 0.06906 X(312) + 0.06906 X(313) + 0.06906 X(314) + 0.06906 X(315) + 0.06906 X(316) + 0.06906 X(317) + 0.06906 X(318) + 0.06906 X(319)
 + 0.06906 X(400) + 0.06906 X(401) + 0.06906 X(402) + 0.06906 X(403) + 0.06906 X(404) + 0.06906 X(405) + 0.06906 X(406) + 0.06906 X(407) + 0.06906 X(408) + 0.06906 X(409)
 + 0.06906 X(410) + 0.06906 X(411) + 0.06906 X(412) + 0.06906 X(413) + 0.06906 X(414) + 0.06906 X(415) + 0.06906 X(416) + 0.06906 X(417) + 0.06906 X(418) + 0.06906 X(419)
 + 0.06906 X(500) + 0.06906 X(501) + 0.06906 X(502) + 0.06906 X(503) + 0.06906 X(504) + 0.06906 X(505) + 0.06906 X(506) + 0.06906 X(507) + 0.06906 X(508) + 0.06906 X(509)
 + 0.06906 X(510) + 0.06906 X(511) + 0.06906 X(512) + 0.06906 X(513) + 0.06906 X(514) + 0.06906 X(515) + 0.06906 X(516) + 0.06906 X(517) + 0.06906 X(518) + 0.06906 X(519)
 + 0.06906 X(600) + 0.06906 X(601) + 0.06906 X(602) + 0.06906 X(603) + 0.06906 X(604) + 0.06906 X(605) + 0.06906 X(606) + 0.06906 X(607) + 0.06906 X(608) + 0.06906 X(609)
 + 0.06906 X(610) + 0.06906 X(611) + 0.06906 X(612) + 0.06906 X(613) + 0.06906 X(614) + 0.06906 X(615) + 0.06906 X(616) + 0.06906 X(617) + 0.06906 X(618) + 0.06906 X(619)
 + 0.06906 X(700) + 0.06906 X(701) + 0.06906 X(702) + 0.06906 X(703) + 0.06906 X(704) + 0.06906 X(705) + 0.06906 X(706) + 0.06906 X(707) + 0.06906 X(708) + 0.06906 X(709)
 + 0.06906 X(710) + 0.06906 X(711) + 0.06906 X(712) + 0.06906 X(713) + 0.06906 X(714) + 0.06906 X(715) + 0.06906 X(716) + 0.06906 X(717) + 0.06906 X(718) + 0.06906 X(719)
 + 0.06906 X(800) + 0.06906 X(801) + 0.06906 X(802) + 0.06906 X(803) + 0.06906 X(804) + 0.06906 X(805) + 0.06906 X(806) + 0.06906 X(807) + 0.06906 X(808) + 0.06906 X(809)
 + 0.06906 X(810) + 0.06906 X(811) + 0.06906 X(812) + 0.06906 X(813) + 0.06906 X(814) + 0.06906 X(815) + 0.06906 X(816) + 0.06906 X(817) + 0.06906 X(818) + 0.06906 X(819)
 + 0.06906 X(900) + 0.06906 X(901) + 0.06906 X(902) + 0.06906 X(903) + 0.06906 X(904) + 0.06906 X(905) + 0.06906 X(906) + 0.06906 X(907) + 0.06906 X(908) + 0.06906 X(909)
 + 0.06906 X(910) + 0.06906 X(911) + 0.06906 X(912) + 0.06906 X(913) + 0.06906 X(914) + 0.06906 X(915) + 0.06906 X(916) + 0.06906 X(917) + 0.06906 X(918) + 0.06906 X(919)
 + S(01) + S(02) <= 19995445.31000
c1(00):  Gamma(000) + Gamma(100) + Gamma(200) + Gamma(300) + Gamma(400) + Gamma(500) + Gamma(600) + Gamma(700) + Gamma(800) + Gamma(900)
 <= 1
c1(01):  Gamma(001) + Gamma(101) + Gamma(201) + Gamma(301) + Gamma(401) + Gamma(501) + Gamma(601) + Gamma(701) + Gamma(801) + Gamma(901)
 <= 1
c1(10):  Gamma(010) + Gamma(110) + Gamma(210) + Gamma(310) + Gamma(410) + Gamma(510) + Gamma(610) + Gamma(710) + Gamma(810) + Gamma(910)
 <= -0
c1(11):  Gamma(011) + Gamma(111) + Gamma(211) + Gamma(311) + Gamma(411) + Gamma(511) + Gamma(611) + Gamma(711) + Gamma(811) + Gamma(911)
 <= -0
c1(20):  Gamma(020) + Gamma(120) + Gamma(220) + Gamma(320) + Gamma(420) + Gamma(520) + Gamma(620) + Gamma(720) + Gamma(820) + Gamma(920)
 <= 1
c1(21):  Gamma(021) + Gamma(121) + Gamma(221) + Gamma(321) + Gamma(421) + Gamma(521) + Gamma(621) + Gamma(721) + Gamma(821) + Gamma(921)
 <= 1
c1(30):  Gamma(030) + Gamma(130) + Gamma(230) + Gamma(330) + Gamma(430) + Gamma(530) + Gamma(630) + Gamma(730) + Gamma(830) + Gamma(930)
 <= 1
c1(31):  Gamma(031) + Gamma(131) + Gamma(231) + Gamma(331) + Gamma(431) + Gamma(531) + Gamma(631) + Gamma(731) + Gamma(831) + Gamma(931)
 <= 1
c1(40):  Gamma(040) + Gamma(140) + Gamma(240) + Gamma(340) + Gamma(440) + Gamma(540) + Gamma(640) + Gamma(740) + Gamma(840) + Gamma(940)
 <= 1
c1(41):  Gamma(041) + Gamma(141) + Gamma(241) + Gamma(341) + Gamma(441) + Gamma(541) + Gamma(641) + Gamma(741) + Gamma(841) + Gamma(941)
 <= 1
c1(50):  Gamma(050) + Gamma(150) + Gamma(250) + Gamma(350) + Gamma(450) + Gamma(550) + Gamma(650) + Gamma(750) + Gamma(850) + Gamma(950)
 <= -0
c1(51):  Gamma(051) + Gamma(151) + Gamma(251) + Gamma(351) + Gamma(451) + Gamma(551) + Gamma(651) + Gamma(751) + Gamma(851) + Gamma(951)
 <= -0
c1(60):  Gamma(060) + Gamma(160) + Gamma(260) + Gamma(360) + Gamma(460) + Gamma(560) + Gamma(660) + Gamma(760) + Gamma(860) + Gamma(960)
 <= 1
c1(61):  Gamma(061) + Gamma(161) + Gamma(261) + Gamma(361) + Gamma(461) + Gamma(561) + Gamma(661) + Gamma(761) + Gamma(861) + Gamma(961)
 <= 1
c1(70):  Gamma(070) + Gamma(170) + Gamma(270) + Gamma(370) + Gamma(470) + Gamma(570) + Gamma(670) + Gamma(770) + Gamma(870) + Gamma(970)
 <= 1
c1(71):  Gamma(071) + Gamma(171) + Gamma(271) + Gamma(371) + Gamma(471) + Gamma(571) + Gamma(671) + Gamma(771) + Gamma(871) + Gamma(971)
 <= 1
c1(80):  Gamma(080) + Gamma(180) + Gamma(280) + Gamma(380) + Gamma(480) + Gamma(580) + Gamma(680) + Gamma(780) + Gamma(880) + Gamma(980)
 <= 1
c1(81):  Gamma(081) + Gamma(181) + Gamma(281) + Gamma(381) + Gamma(481) + Gamma(581) + Gamma(681) + Gamma(781) + Gamma(881) + Gamma(981)
 <= 1
c1(90):  Gamma(090) + Gamma(190) + Gamma(290) + Gamma(390) + Gamma(490) + Gamma(590) + Gamma(690) + Gamma(790) + Gamma(890) + Gamma(990)
 <= -0
c1(91):  Gamma(091) + Gamma(191) + Gamma(291) + Gamma(391) + Gamma(491) + Gamma(591) + Gamma(691) + Gamma(791) + Gamma(891) + Gamma(991)
 <= -0
c2(00):  Gamma(000) + Gamma(010) + Gamma(020) + Gamma(030) + Gamma(040) + Gamma(050) + Gamma(060) + Gamma(070) + Gamma(080) + Gamma(090)
 <= 1
c2(01):  Gamma(001) + Gamma(011) + Gamma(021) + Gamma(031) + Gamma(041) + Gamma(051) + Gamma(061) + Gamma(071) + Gamma(081) + Gamma(091)
 <= 1
c2(10):  Gamma(100) + Gamma(110) + Gamma(120) + Gamma(130) + Gamma(140) + Gamma(150) + Gamma(160) + Gamma(170) + Gamma(180) + Gamma(190)
 <= 1
c2(11):  Gamma(101) + Gamma(111) + Gamma(121) + Gamma(131) + Gamma(141) + Gamma(151) + Gamma(161) + Gamma(171) + Gamma(181) + Gamma(191)
 <= 1
c2(20):  Gamma(200) + Gamma(210) + Gamma(220) + Gamma(230) + Gamma(240) + Gamma(250) + Gamma(260) + Gamma(270) + Gamma(280) + Gamma(290)
 <= 1
c2(21):  Gamma(201) + Gamma(211) + Gamma(221) + Gamma(231) + Gamma(241) + Gamma(251) + Gamma(261) + Gamma(271) + Gamma(281) + Gamma(291)
 <= 1
c2(30):  Gamma(300) + Gamma(310) + Gamma(320) + Gamma(330) + Gamma(340) + Gamma(350) + Gamma(360) + Gamma(370) + Gamma(380) + Gamma(390)
 <= 1
c2(31):  Gamma(301) + Gamma(311) + Gamma(321) + Gamma(331) + Gamma(341) + Gamma(351) + Gamma(361) + Gamma(371) + Gamma(381) + Gamma(391)
 <= 1
c2(40):  Gamma(400) + Gamma(410) + Gamma(420) + Gamma(430) + Gamma(440) + Gamma(450) + Gamma(460) + Gamma(470) + Gamma(480) + Gamma(490)
 <= 1
c2(41):  Gamma(401) + Gamma(411) + Gamma(421) + Gamma(431) + Gamma(441) + Gamma(451) + Gamma(461) + Gamma(471) + Gamma(481) + Gamma(491)
 <= 1
c2(50):  Gamma(500) + Gamma(510) + Gamma(520) + Gamma(530) + Gamma(540) + Gamma(550) + Gamma(560) + Gamma(570) + Gamma(580) + Gamma(590)
 <= 1
c2(51):  Gamma(501) + Gamma(511) + Gamma(521) + Gamma(531) + Gamma(541) + Gamma(551) + Gamma(561) + Gamma(571) + Gamma(581) + Gamma(591)
 <= 1
c2(60):  Gamma(600) + Gamma(610) + Gamma(620) + Gamma(630) + Gamma(640) + Gamma(650) + Gamma(660) + Gamma(670) + Gamma(680) + Gamma(690)
 <= 1
c2(61):  Gamma(601) + Gamma(611) + Gamma(621) + Gamma(631) + Gamma(641) + Gamma(651) + Gamma(661) + Gamma(671) + Gamma(681) + Gamma(691)
 <= 1
c2(70):  Gamma(700) + Gamma(710) + Gamma(720) + Gamma(730) + Gamma(740) + Gamma(750) + Gamma(760) + Gamma(770) + Gamma(780) + Gamma(790)
 <= 1
c2(71):  Gamma(701) + Gamma(711) + Gamma(721) + Gamma(731) + Gamma(741) + Gamma(751) + Gamma(761) + Gamma(771) + Gamma(781) + Gamma(791)
 <= 1
c2(80):  Gamma(800) + Gamma(810) + Gamma(820) + Gamma(830) + Gamma(840) + Gamma(850) + Gamma(860) + Gamma(870) + Gamma(880) + Gamma(890)
 <= 1
c2(81):  Gamma(801) + Gamma(811) + Gamma(821) + Gamma(831) + Gamma(841) + Gamma(851) + Gamma(861) + Gamma(871) + Gamma(881) + Gamma(891)
 <= 1
c2(90):  Gamma(900) + Gamma(910) + Gamma(920) + Gamma(930) + Gamma(940) + Gamma(950) + Gamma(960) + Gamma(970) + Gamma(980) + Gamma(990)
 <= 1
c2(91):  Gamma(901) + Gamma(911) + Gamma(921) + Gamma(931) + Gamma(941) + Gamma(951) + Gamma(961) + Gamma(971) + Gamma(981) + Gamma(991)
 <= 1
c4(00):  Gamma(001) + Gamma(011) + Gamma(021) + Gamma(031) + Gamma(041) + Gamma(051) + Gamma(061) + Gamma(071) + Gamma(081) - Gamma(090)
 + Gamma(091) <= -0
c4(10):  Gamma(101) + Gamma(111) + Gamma(121) + Gamma(131) + Gamma(141) + Gamma(151) + Gamma(161) + Gamma(171) + Gamma(181) - Gamma(190)
 + Gamma(191) <= -0
c4(20):  Gamma(201) + Gamma(211) + Gamma(221) + Gamma(231) + Gamma(241) + Gamma(251) + Gamma(261) + Gamma(271) + Gamma(281) - Gamma(290)
 + Gamma(291) <= -0
c4(30):  Gamma(301) + Gamma(311) + Gamma(321) + Gamma(331) + Gamma(341) + Gamma(351) + Gamma(361) + Gamma(371) + Gamma(381) - Gamma(390)
 + Gamma(391) <= -0
c4(40):  Gamma(401) + Gamma(411) + Gamma(421) + Gamma(431) + Gamma(441) + Gamma(451) + Gamma(461) + Gamma(471) + Gamma(481) - Gamma(490)
 + Gamma(491) <= -0
c4(50):  Gamma(501) + Gamma(511) + Gamma(521) + Gamma(531) + Gamma(541) + Gamma(551) + Gamma(561) + Gamma(571) + Gamma(581) - Gamma(590)
 + Gamma(591) <= -0
c4(60):  Gamma(601) + Gamma(611) + Gamma(621) + Gamma(631) + Gamma(641) + Gamma(651) + Gamma(661) + Gamma(671) + Gamma(681) - Gamma(690)
 + Gamma(691) <= -0
c4(70):  Gamma(701) + Gamma(711) + Gamma(721) + Gamma(731) + Gamma(741) + Gamma(751) + Gamma(761) + Gamma(771) + Gamma(781) - Gamma(790)
 + Gamma(791) <= -0
c4(80):  Gamma(801) + Gamma(811) + Gamma(821) + Gamma(831) + Gamma(841) + Gamma(851) + Gamma(861) + Gamma(871) + Gamma(881) - Gamma(890)
 + Gamma(891) <= -0
c4(90):  Gamma(901) + Gamma(911) + Gamma(921) + Gamma(931) + Gamma(941) + Gamma(951) + Gamma(961) + Gamma(971) + Gamma(981) - Gamma(990)
 + Gamma(991) <= -0
c5(0):  X(000) + X(010) + X(100) + X(110) + X(200) + X(210) + X(300) + X(310) + X(400) + X(410)
 + X(500) + X(510) + X(600) + X(610) + X(700) + X(710) + X(800) + X(810) + X(900) + X(910)
 <= 491
c5(1):  X(001) + X(011) + X(101) + X(111) + X(201) + X(211) + X(301) + X(311) + X(401) + X(411)
 + X(501) + X(511) + X(601) + X(611) + X(701) + X(711) + X(801) + X(811) + X(901) + X(911)
 <= 466
c5(2):  X(002) + X(012) + X(102) + X(112) + X(202) + X(212) + X(302) + X(312) + X(402) + X(412)
 + X(502) + X(512) + X(602) + X(612) + X(702) + X(712) + X(802) + X(812) + X(902) + X(912)
 <= 483
c5(3):  X(003) + X(013) + X(103) + X(113) + X(203) + X(213) + X(303) + X(313) + X(403) + X(413)
 + X(503) + X(513) + X(603) + X(613) + X(703) + X(713) + X(803) + X(813) + X(903) + X(913)
 <= 546
c5(4):  X(004) + X(014) + X(104) + X(114) + X(204) + X(214) + X(304) + X(314) + X(404) + X(414)
 + X(504) + X(514) + X(604) + X(614) + X(704) + X(714) + X(804) + X(814) + X(904) + X(914)
 <= 481
c5(5):  X(005) + X(015) + X(105) + X(115) + X(205) + X(215) + X(305) + X(315) + X(405) + X(415)
 + X(505) + X(515) + X(605) + X(615) + X(705) + X(715) + X(805) + X(815) + X(905) + X(915)
 <= 475
c5(6):  X(006) + X(016) + X(106) + X(116) + X(206) + X(216) + X(306) + X(316) + X(406) + X(416)
 + X(506) + X(516) + X(606) + X(616) + X(706) + X(716) + X(806) + X(816) + X(906) + X(916)
 <= 515
c5(7):  X(007) + X(017) + X(107) + X(117) + X(207) + X(217) + X(307) + X(317) + X(407) + X(417)
 + X(507) + X(517) + X(607) + X(617) + X(707) + X(717) + X(807) + X(817) + X(907) + X(917)
 <= 464
c5(8):  X(008) + X(018) + X(108) + X(118) + X(208) + X(218) + X(308) + X(318) + X(408) + X(418)
 + X(508) + X(518) + X(608) + X(618) + X(708) + X(718) + X(808) + X(818) + X(908) + X(918)
 <= 490
c5(9):  X(009) + X(019) + X(109) + X(119) + X(209) + X(219) + X(309) + X(319) + X(409) + X(419)
 + X(509) + X(519) + X(609) + X(619) + X(709) + X(719) + X(809) + X(819) + X(909) + X(919)
 <= 470
c6(00):  -200 Gamma(000) -200 Gamma(100) -200 Gamma(200) -200 Gamma(300) -200 Gamma(400) -200 Gamma(500) -200 Gamma(600) -200 Gamma(700) -200 Gamma(800) -200 Gamma(900)
 + X(000) + X(001) + X(002) + X(003) + X(004) + X(005) + X(006) + X(007) + X(008) + X(009)
 <= -0
c6(01):  -200 Gamma(001) -200 Gamma(101) -200 Gamma(201) -200 Gamma(301) -200 Gamma(401) -200 Gamma(501) -200 Gamma(601) -200 Gamma(701) -200 Gamma(801) -200 Gamma(901)
 + X(010) + X(011) + X(012) + X(013) + X(014) + X(015) + X(016) + X(017) + X(018) + X(019)
 <= -0
c6(10):  -200 Gamma(010) -200 Gamma(110) -200 Gamma(210) -200 Gamma(310) -200 Gamma(410) -200 Gamma(510) -200 Gamma(610) -200 Gamma(710) -200 Gamma(810) -200 Gamma(910)
 + X(100) + X(101) + X(102) + X(103) + X(104) + X(105) + X(106) + X(107) + X(108) + X(109)
 <= 500
c6(11):  -200 Gamma(011) -200 Gamma(111) -200 Gamma(211) -200 Gamma(311) -200 Gamma(411) -200 Gamma(511) -200 Gamma(611) -200 Gamma(711) -200 Gamma(811) -200 Gamma(911)
 + X(110) + X(111) + X(112) + X(113) + X(114) + X(115) + X(116) + X(117) + X(118) + X(119)
 <= 500
c6(20):  -200 Gamma(020) -200 Gamma(120) -200 Gamma(220) -200 Gamma(320) -200 Gamma(420) -200 Gamma(520) -200 Gamma(620) -200 Gamma(720) -200 Gamma(820) -200 Gamma(920)
 + X(200) + X(201) + X(202) + X(203) + X(204) + X(205) + X(206) + X(207) + X(208) + X(209)
 <= -0
c6(21):  -200 Gamma(021) -200 Gamma(121) -200 Gamma(221) -200 Gamma(321) -200 Gamma(421) -200 Gamma(521) -200 Gamma(621) -200 Gamma(721) -200 Gamma(821) -200 Gamma(921)
 + X(210) + X(211) + X(212) + X(213) + X(214) + X(215) + X(216) + X(217) + X(218) + X(219)
 <= -0
c6(30):  -200 Gamma(030) -200 Gamma(130) -200 Gamma(230) -200 Gamma(330) -200 Gamma(430) -200 Gamma(530) -200 Gamma(630) -200 Gamma(730) -200 Gamma(830) -200 Gamma(930)
 + X(300) + X(301) + X(302) + X(303) + X(304) + X(305) + X(306) + X(307) + X(308) + X(309)
 <= -0
c6(31):  -200 Gamma(031) -200 Gamma(131) -200 Gamma(231) -200 Gamma(331) -200 Gamma(431) -200 Gamma(531) -200 Gamma(631) -200 Gamma(731) -200 Gamma(831) -200 Gamma(931)
 + X(310) + X(311) + X(312) + X(313) + X(314) + X(315) + X(316) + X(317) + X(318) + X(319)
 <= -0
c6(40):  -200 Gamma(040) -200 Gamma(140) -200 Gamma(240) -200 Gamma(340) -200 Gamma(440) -200 Gamma(540) -200 Gamma(640) -200 Gamma(740) -200 Gamma(840) -200 Gamma(940)
 + X(400) + X(401) + X(402) + X(403) + X(404) + X(405) + X(406) + X(407) + X(408) + X(409)
 <= -0
c6(41):  -200 Gamma(041) -200 Gamma(141) -200 Gamma(241) -200 Gamma(341) -200 Gamma(441) -200 Gamma(541) -200 Gamma(641) -200 Gamma(741) -200 Gamma(841) -200 Gamma(941)
 + X(410) + X(411) + X(412) + X(413) + X(414) + X(415) + X(416) + X(417) + X(418) + X(419)
 <= -0
c6(50):  -200 Gamma(050) -200 Gamma(150) -200 Gamma(250) -200 Gamma(350) -200 Gamma(450) -200 Gamma(550) -200 Gamma(650) -200 Gamma(750) -200 Gamma(850) -200 Gamma(950)
 + X(500) + X(501) + X(502) + X(503) + X(504) + X(505) + X(506) + X(507) + X(508) + X(509)
 <= 500
c6(51):  -200 Gamma(051) -200 Gamma(151) -200 Gamma(251) -200 Gamma(351) -200 Gamma(451) -200 Gamma(551) -200 Gamma(651) -200 Gamma(751) -200 Gamma(851) -200 Gamma(951)
 + X(510) + X(511) + X(512) + X(513) + X(514) + X(515) + X(516) + X(517) + X(518) + X(519)
 <= 500
c6(60):  -200 Gamma(060) -200 Gamma(160) -200 Gamma(260) -200 Gamma(360) -200 Gamma(460) -200 Gamma(560) -200 Gamma(660) -200 Gamma(760) -200 Gamma(860) -200 Gamma(960)
 + X(600) + X(601) + X(602) + X(603) + X(604) + X(605) + X(606) + X(607) + X(608) + X(609)
 <= -0
c6(61):  -200 Gamma(061) -200 Gamma(161) -200 Gamma(261) -200 Gamma(361) -200 Gamma(461) -200 Gamma(561) -200 Gamma(661) -200 Gamma(761) -200 Gamma(861) -200 Gamma(961)
 + X(610) + X(611) + X(612) + X(613) + X(614) + X(615) + X(616) + X(617) + X(618) + X(619)
 <= -0
c6(70):  -200 Gamma(070) -200 Gamma(170) -200 Gamma(270) -200 Gamma(370) -200 Gamma(470) -200 Gamma(570) -200 Gamma(670) -200 Gamma(770) -200 Gamma(870) -200 Gamma(970)
 + X(700) + X(701) + X(702) + X(703) + X(704) + X(705) + X(706) + X(707) + X(708) + X(709)
 <= -0
c6(71):  -200 Gamma(071) -200 Gamma(171) -200 Gamma(271) -200 Gamma(371) -200 Gamma(471) -200 Gamma(571) -200 Gamma(671) -200 Gamma(771) -200 Gamma(871) -200 Gamma(971)
 + X(710) + X(711) + X(712) + X(713) + X(714) + X(715) + X(716) + X(717) + X(718) + X(719)
 <= -0
c6(80):  -200 Gamma(080) -200 Gamma(180) -200 Gamma(280) -200 Gamma(380) -200 Gamma(480) -200 Gamma(580) -200 Gamma(680) -200 Gamma(780) -200 Gamma(880) -200 Gamma(980)
 + X(800) + X(801) + X(802) + X(803) + X(804) + X(805) + X(806) + X(807) + X(808) + X(809)
 <= -0
c6(81):  -200 Gamma(081) -200 Gamma(181) -200 Gamma(281) -200 Gamma(381) -200 Gamma(481) -200 Gamma(581) -200 Gamma(681) -200 Gamma(781) -200 Gamma(881) -200 Gamma(981)
 + X(810) + X(811) + X(812) + X(813) + X(814) + X(815) + X(816) + X(817) + X(818) + X(819)
 <= -0
c6(90):  -200 Gamma(090) -200 Gamma(190) -200 Gamma(290) -200 Gamma(390) -200 Gamma(490) -200 Gamma(590) -200 Gamma(690) -200 Gamma(790) -200 Gamma(890) -200 Gamma(990)
 + X(900) + X(901) + X(902) + X(903) + X(904) + X(905) + X(906) + X(907) + X(908) + X(909)
 <= 500
c6(91):  -200 Gamma(091) -200 Gamma(191) -200 Gamma(291) -200 Gamma(391) -200 Gamma(491) -200 Gamma(591) -200 Gamma(691) -200 Gamma(791) -200 Gamma(891) -200 Gamma(991)
 + X(910) + X(911) + X(912) + X(913) + X(914) + X(915) + X(916) + X(917) + X(918) + X(919)
 <= 500
c7(00):  Y(000) - X(000) - X(001) - X(002) - X(003) - X(004) - X(005) - X(006) - X(007) - X(008)
 - X(009) = -0
c7(01):  Y(001) - X(010) - X(011) - X(012) - X(013) - X(014) - X(015) - X(016) - X(017) - X(018)
 - X(019) = -0
c7(10):  Y(100) - X(100) - X(101) - X(102) - X(103) - X(104) - X(105) - X(106) - X(107) - X(108)
 - X(109) = -0
c7(11):  Y(101) - X(110) - X(111) - X(112) - X(113) - X(114) - X(115) - X(116) - X(117) - X(118)
 - X(119) = -0
c7(20):  Y(200) - X(200) - X(201) - X(202) - X(203) - X(204) - X(205) - X(206) - X(207) - X(208)
 - X(209) = -0
c7(21):  Y(201) - X(210) - X(211) - X(212) - X(213) - X(214) - X(215) - X(216) - X(217) - X(218)
 - X(219) = -0
c7(30):  Y(300) - X(300) - X(301) - X(302) - X(303) - X(304) - X(305) - X(306) - X(307) - X(308)
 - X(309) = -0
c7(31):  Y(301) - X(310) - X(311) - X(312) - X(313) - X(314) - X(315) - X(316) - X(317) - X(318)
 - X(319) = -0
c7(40):  Y(400) - X(400) - X(401) - X(402) - X(403) - X(404) - X(405) - X(406) - X(407) - X(408)
 - X(409) = -0
c7(41):  Y(401) - X(410) - X(411) - X(412) - X(413) - X(414) - X(415) - X(416) - X(417) - X(418)
 - X(419) = -0
c7(50):  Y(500) - X(500) - X(501) - X(502) - X(503) - X(504) - X(505) - X(506) - X(507) - X(508)
 - X(509) = -0
c7(51):  Y(501) - X(510) - X(511) - X(512) - X(513) - X(514) - X(515) - X(516) - X(517) - X(518)
 - X(519) = -0
c7(60):  Y(600) - X(600) - X(601) - X(602) - X(603) - X(604) - X(605) - X(606) - X(607) - X(608)
 - X(609) = -0
c7(61):  Y(601) - X(610) - X(611) - X(612) - X(613) - X(614) - X(615) - X(616) - X(617) - X(618)
 - X(619) = -0
c7(70):  Y(700) - X(700) - X(701) - X(702) - X(703) - X(704) - X(705) - X(706) - X(707) - X(708)
 - X(709) = -0
c7(71):  Y(701) - X(710) - X(711) - X(712) - X(713) - X(714) - X(715) - X(716) - X(717) - X(718)
 - X(719) = -0
c7(80):  Y(800) - X(800) - X(801) - X(802) - X(803) - X(804) - X(805) - X(806) - X(807) - X(808)
 - X(809) = -0
c7(81):  Y(801) - X(810) - X(811) - X(812) - X(813) - X(814) - X(815) - X(816) - X(817) - X(818)
 - X(819) = -0
c7(90):  Y(900) - X(900) - X(901) - X(902) - X(903) - X(904) - X(905) - X(906) - X(907) - X(908)
 - X(909) = -0
c7(91):  Y(901) - X(910) - X(911) - X(912) - X(913) - X(914) - X(915) - X(916) - X(917) - X(918)
 - X(919) = -0
c8(00):  Y(000) + Y(100) + Y(200) + Y(300) + Y(400) + Y(500) + Y(600) + Y(700) + Y(800) + Y(900)
 + S(00) - S(01) + I(00) = 941
c8(01):  Y(001) + Y(101) + Y(201) + Y(301) + Y(401) + Y(501) + Y(601) + Y(701) + Y(801) + Y(901)
 + S(01) - S(02) + I(01) = 354
constr(103):  - Y(000) - Y(100) - Y(200) - Y(300) - Y(400) - Y(500) - Y(600) - Y(700) - Y(800) - Y(900)
 + S(01) <= -0
constr(104):  - Y(001) - Y(101) - Y(201) - Y(301) - Y(401) - Y(501) - Y(601) - Y(701) - Y(801) - Y(901)
 + S(02) <= -0
c9(00):  S(00) <= 2200
c9(01):  S(01) <= 2200
c9(02):  S(02) <= 2200
c2(0):  S(00) = 0
Bounds
 0 <= Gamma(000) <= 1
 0 <= Gamma(001) <= 1
 0 <= Gamma(010) <= 1
 0 <= Gamma(011) <= 1
 0 <= Gamma(020) <= 1
 0 <= Gamma(021) <= 1
 0 <= Gamma(030) <= 1
 0 <= Gamma(031) <= 1
 0 <= Gamma(040) <= 1
 0 <= Gamma(041) <= 1
 0 <= Gamma(050) <= 1
 0 <= Gamma(051) <= 1
 0 <= Gamma(060) <= 1
 0 <= Gamma(061) <= 1
 0 <= Gamma(070) <= 1
 0 <= Gamma(071) <= 1
 0 <= Gamma(080) <= 1
 0 <= Gamma(081) <= 1
 0 <= Gamma(090) <= 1
 0 <= Gamma(091) <= 1
 0 <= Gamma(100) <= 1
 0 <= Gamma(101) <= 1
 0 <= Gamma(110) <= 1
 0 <= Gamma(111) <= 1
 0 <= Gamma(120) <= 1
 0 <= Gamma(121) <= 1
 0 <= Gamma(130) <= 1
 0 <= Gamma(131) <= 1
 0 <= Gamma(140) <= 1
 0 <= Gamma(141) <= 1
 0 <= Gamma(150) <= 1
 0 <= Gamma(151) <= 1
 0 <= Gamma(160) <= 1
 0 <= Gamma(161) <= 1
 0 <= Gamma(170) <= 1
 0 <= Gamma(171) <= 1
 0 <= Gamma(180) <= 1
 0 <= Gamma(181) <= 1
 0 <= Gamma(190) <= 1
 0 <= Gamma(191) <= 1
 0 <= Gamma(200) <= 1
 0 <= Gamma(201) <= 1
 0 <= Gamma(210) <= 1
 0 <= Gamma(211) <= 1
 0 <= Gamma(220) <= 1
 0 <= Gamma(221) <= 1
 0 <= Gamma(230) <= 1
 0 <= Gamma(231) <= 1
 0 <= Gamma(240) <= 1
 0 <= Gamma(241) <= 1
 0 <= Gamma(250) <= 1
 0 <= Gamma(251) <= 1
 0 <= Gamma(260) <= 1
 0 <= Gamma(261) <= 1
 0 <= Gamma(270) <= 1
 0 <= Gamma(271) <= 1
 0 <= Gamma(280) <= 1
 0 <= Gamma(281) <= 1
 0 <= Gamma(290) <= 1
 0 <= Gamma(291) <= 1
 0 <= Gamma(300) <= 1
 0 <= Gamma(301) <= 1
 0 <= Gamma(310) <= 1
 0 <= Gamma(311) <= 1
 0 <= Gamma(320) <= 1
 0 <= Gamma(321) <= 1
 0 <= Gamma(330) <= 1
 0 <= Gamma(331) <= 1
 0 <= Gamma(340) <= 1
 0 <= Gamma(341) <= 1
 0 <= Gamma(350) <= 1
 0 <= Gamma(351) <= 1
 0 <= Gamma(360) <= 1
 0 <= Gamma(361) <= 1
 0 <= Gamma(370) <= 1
 0 <= Gamma(371) <= 1
 0 <= Gamma(380) <= 1
 0 <= Gamma(381) <= 1
 0 <= Gamma(390) <= 1
 0 <= Gamma(391) <= 1
 0 <= Gamma(400) <= 1
 0 <= Gamma(401) <= 1
 0 <= Gamma(410) <= 1
 0 <= Gamma(411) <= 1
 0 <= Gamma(420) <= 1
 0 <= Gamma(421) <= 1
 0 <= Gamma(430) <= 1
 0 <= Gamma(431) <= 1
 0 <= Gamma(440) <= 1
 0 <= Gamma(441) <= 1
 0 <= Gamma(450) <= 1
 0 <= Gamma(451) <= 1
 0 <= Gamma(460) <= 1
 0 <= Gamma(461) <= 1
 0 <= Gamma(470) <= 1
 0 <= Gamma(471) <= 1
 0 <= Gamma(480) <= 1
 0 <= Gamma(481) <= 1
 0 <= Gamma(490) <= 1
 0 <= Gamma(491) <= 1
 0 <= Gamma(500) <= 1
 0 <= Gamma(501) <= 1
 0 <= Gamma(510) <= 1
 0 <= Gamma(511) <= 1
 0 <= Gamma(520) <= 1
 0 <= Gamma(521) <= 1
 0 <= Gamma(530) <= 1
 0 <= Gamma(531) <= 1
 0 <= Gamma(540) <= 1
 0 <= Gamma(541) <= 1
 0 <= Gamma(550) <= 1
 0 <= Gamma(551) <= 1
 0 <= Gamma(560) <= 1
 0 <= Gamma(561) <= 1
 0 <= Gamma(570) <= 1
 0 <= Gamma(571) <= 1
 0 <= Gamma(580) <= 1
 0 <= Gamma(581) <= 1
 0 <= Gamma(590) <= 1
 0 <= Gamma(591) <= 1
 0 <= Gamma(600) <= 1
 0 <= Gamma(601) <= 1
 0 <= Gamma(610) <= 1
 0 <= Gamma(611) <= 1
 0 <= Gamma(620) <= 1
 0 <= Gamma(621) <= 1
 0 <= Gamma(630) <= 1
 0 <= Gamma(631) <= 1
 0 <= Gamma(640) <= 1
 0 <= Gamma(641) <= 1
 0 <= Gamma(650) <= 1
 0 <= Gamma(651) <= 1
 0 <= Gamma(660) <= 1
 0 <= Gamma(661) <= 1
 0 <= Gamma(670) <= 1
 0 <= Gamma(671) <= 1
 0 <= Gamma(680) <= 1
 0 <= Gamma(681) <= 1
 0 <= Gamma(690) <= 1
 0 <= Gamma(691) <= 1
 0 <= Gamma(700) <= 1
 0 <= Gamma(701) <= 1
 0 <= Gamma(710) <= 1
 0 <= Gamma(711) <= 1
 0 <= Gamma(720) <= 1
 0 <= Gamma(721) <= 1
 0 <= Gamma(730) <= 1
 0 <= Gamma(731) <= 1
 0 <= Gamma(740) <= 1
 0 <= Gamma(741) <= 1
 0 <= Gamma(750) <= 1
 0 <= Gamma(751) <= 1
 0 <= Gamma(760) <= 1
 0 <= Gamma(761) <= 1
 0 <= Gamma(770) <= 1
 0 <= Gamma(771) <= 1
 0 <= Gamma(780) <= 1
 0 <= Gamma(781) <= 1
 0 <= Gamma(790) <= 1
 0 <= Gamma(791) <= 1
 0 <= Gamma(800) <= 1
 0 <= Gamma(801) <= 1
 0 <= Gamma(810) <= 1
 0 <= Gamma(811) <= 1
 0 <= Gamma(820) <= 1
 0 <= Gamma(821) <= 1
 0 <= Gamma(830) <= 1
 0 <= Gamma(831) <= 1
 0 <= Gamma(840) <= 1
 0 <= Gamma(841) <= 1
 0 <= Gamma(850) <= 1
 0 <= Gamma(851) <= 1
 0 <= Gamma(860) <= 1
 0 <= Gamma(861) <= 1
 0 <= Gamma(870) <= 1
 0 <= Gamma(871) <= 1
 0 <= Gamma(880) <= 1
 0 <= Gamma(881) <= 1
 0 <= Gamma(890) <= 1
 0 <= Gamma(891) <= 1
 0 <= Gamma(900) <= 1
 0 <= Gamma(901) <= 1
 0 <= Gamma(910) <= 1
 0 <= Gamma(911) <= 1
 0 <= Gamma(920) <= 1
 0 <= Gamma(921) <= 1
 0 <= Gamma(930) <= 1
 0 <= Gamma(931) <= 1
 0 <= Gamma(940) <= 1
 0 <= Gamma(941) <= 1
 0 <= Gamma(950) <= 1
 0 <= Gamma(951) <= 1
 0 <= Gamma(960) <= 1
 0 <= Gamma(961) <= 1
 0 <= Gamma(970) <= 1
 0 <= Gamma(971) <= 1
 0 <= Gamma(980) <= 1
 0 <= Gamma(981) <= 1
 0 <= Gamma(990) <= 1
 0 <= Gamma(991) <= 1
Integers
Gamma(000) Gamma(001) Gamma(010) Gamma(011) Gamma(020) Gamma(021) Gamma(030) Gamma(031) Gamma(040) Gamma(041) 
Gamma(050) Gamma(051) Gamma(060) Gamma(061) Gamma(070) Gamma(071) Gamma(080) Gamma(081) Gamma(090) Gamma(091) 
Gamma(100) Gamma(101) Gamma(110) Gamma(111) Gamma(120) Gamma(121) Gamma(130) Gamma(131) Gamma(140) Gamma(141) 
Gamma(150) Gamma(151) Gamma(160) Gamma(161) Gamma(170) Gamma(171) Gamma(180) Gamma(181) Gamma(190) Gamma(191) 
Gamma(200) Gamma(201) Gamma(210) Gamma(211) Gamma(220) Gamma(221) Gamma(230) Gamma(231) Gamma(240) Gamma(241) 
Gamma(250) Gamma(251) Gamma(260) Gamma(261) Gamma(270) Gamma(271) Gamma(280) Gamma(281) Gamma(290) Gamma(291) 
Gamma(300) Gamma(301) Gamma(310) Gamma(311) Gamma(320) Gamma(321) Gamma(330) Gamma(331) Gamma(340) Gamma(341) 
Gamma(350) Gamma(351) Gamma(360) Gamma(361) Gamma(370) Gamma(371) Gamma(380) Gamma(381) Gamma(390) Gamma(391) 
Gamma(400) Gamma(401) Gamma(410) Gamma(411) Gamma(420) Gamma(421) Gamma(430) Gamma(431) Gamma(440) Gamma(441) 
Gamma(450) Gamma(451) Gamma(460) Gamma(461) Gamma(470) Gamma(471) Gamma(480) Gamma(481) Gamma(490) Gamma(491) 
Gamma(500) Gamma(501) Gamma(510) Gamma(511) Gamma(520) Gamma(521) Gamma(530) Gamma(531) Gamma(540) Gamma(541) 
Gamma(550) Gamma(551) Gamma(560) Gamma(561) Gamma(570) Gamma(571) Gamma(580) Gamma(581) Gamma(590) Gamma(591) 
Gamma(600) Gamma(601) Gamma(610) Gamma(611) Gamma(620) Gamma(621) Gamma(630) Gamma(631) Gamma(640) Gamma(641) 
Gamma(650) Gamma(651) Gamma(660) Gamma(661) Gamma(670) Gamma(671) Gamma(680) Gamma(681) Gamma(690) Gamma(691) 
Gamma(700) Gamma(701) Gamma(710) Gamma(711) Gamma(720) Gamma(721) Gamma(730) Gamma(731) Gamma(740) Gamma(741) 
Gamma(750) Gamma(751) Gamma(760) Gamma(761) Gamma(770) Gamma(771) Gamma(780) Gamma(781) Gamma(790) Gamma(791) 
Gamma(800) Gamma(801) Gamma(810) Gamma(811) Gamma(820) Gamma(821) Gamma(830) Gamma(831) Gamma(840) Gamma(841) 
Gamma(850) Gamma(851) Gamma(860) Gamma(861) Gamma(870) Gamma(871) Gamma(880) Gamma(881) Gamma(890) Gamma(891) 
Gamma(900) Gamma(901) Gamma(910) Gamma(911) Gamma(920) Gamma(921) Gamma(930) Gamma(931) Gamma(940) Gamma(941) 
Gamma(950) Gamma(951) Gamma(960) Gamma(961) Gamma(970) Gamma(971) Gamma(980) Gamma(981) Gamma(990) Gamma(991) 
End
